
n_res = 8;
rcap = [24, 23, 22, 21, 585, 692, 691, 676];
rtype = [1, 1, 1, 1, 2, 2, 2, 2];
n_tasks = 50;
modes =  [{1, 2, 3}, {4, 5, 6}, {7, 8, 9}, {10, 11, 12}, {13, 14, 15}, {16, 17, 18}, {19, 20, 21}, {22, 23, 24}, {25, 26, 27}, {28, 29, 30}, {31, 32, 33}, {34, 35, 36}, {37, 38, 39}, {40, 41, 42}, {43, 44, 45}, {46, 47, 48}, {49, 50, 51}, {52, 53, 54}, {55, 56, 57}, {58, 59, 60}, {61, 62, 63}, {64, 65, 66}, {67, 68, 69}, {70, 71, 72}, {73, 74, 75}, {76, 77, 78}, {79, 80, 81}, {82, 83, 84}, {85, 86, 87}, {88, 89, 90}, {91, 92, 93}, {94, 95, 96}, {97, 98, 99}, {100, 101, 102}, {103, 104, 105}, {106, 107, 108}, {109, 110, 111}, {112, 113, 114}, {115, 116, 117}, {118, 119, 120}, {121, 122, 123}, {124, 125, 126}, {127, 128, 129}, {130, 131, 132}, {133, 134, 135}, {136, 137, 138}, {139, 140, 141}, {142, 143, 144}, {145, 146, 147}, {148, 149, 150}];
succ =  [{23, 22, 20, 13, 5}, {30, 24, 22, 18, 16, 15, 9}, {30, 29, 26, 24, 23, 21, 18, 16, 11}, {33, 29, 27, 22, 15, 13}, {29, 26, 24, 18, 11}, {33, 32, 31, 30, 29, 28, 27, 26, 23}, {30, 26, 22, 11}, {33, 23, 22, 13}, {32, 26, 11}, {42, 31, 29, 26, 25, 18}, {50, 34, 33, 31, 28, 27, 25}, {50, 42, 38, 33, 32, 31, 23}, {34, 32, 31, 30, 26, 25}, {50, 38, 34, 31, 27, 26, 25}, {42, 39, 38, 32, 23}, {50, 42, 41, 37, 36, 33, 32, 31}, {50, 33, 28, 26, 25}, {39, 38, 37, 36, 34, 33, 32}, {32, 23}, {49, 48, 42, 41, 39, 34, 29}, {50, 34, 25}, {50, 49, 47, 42, 40, 36, 32}, {34, 25}, {35, 25}, {49, 48, 46, 41, 40, 37, 36}, {49, 48, 46, 41, 40, 37, 36}, {47, 42, 39, 36, 35}, {48, 46, 40, 38, 36}, {46, 40, 37, 36}, {50, 42, 40, 38}, {45, 43, 39}, {48, 35}, {49, 46, 45, 43}, {45, 43, 40}, {46, 44, 43}, {45, 44}, {47, 43}, {44, 43}, {40}, {44}, {43}, {45}, {}, {}, {}, {}, {}, {}, {}, {}];
n_opt = 150;
dur = [20, 27, 30, 9, 17, 20, 18, 19, 30, 8, 21, 22, 6, 9, 30, 2, 12, 14, 14, 20, 21, 4, 27, 30, 8, 17, 21, 3, 7, 11, 7, 8, 14, 5, 6, 27, 7, 27, 28, 5, 26, 28, 4, 6, 22, 8, 18, 27, 9, 13, 20, 3, 10, 20, 12, 15, 16, 7, 12, 21, 5, 9, 15, 5, 6, 17, 19, 23, 27, 12, 14, 25, 7, 11, 13, 3, 4, 8, 7, 14, 24, 7, 8, 24, 8, 11, 14, 4, 5, 19, 4, 24, 29, 8, 18, 27, 12, 13, 26, 2, 18, 20, 18, 19, 24, 7, 22, 25, 8, 9, 25, 3, 12, 20, 3, 4, 22, 3, 20, 24, 10, 13, 18, 5, 11, 14, 8, 23, 27, 9, 19, 25, 4, 5, 13, 12, 28, 29, 4, 23, 27, 16, 24, 26, 2, 7, 20, 3, 21, 24];
rreq = [|3, 2, 1, 3, 3, 3, 5, 5, 5, 2, 2, 1, 4, 2, 2, 4, 4, 3, 4, 3, 2, 3, 2, 1, 4, 4, 3, 4, 4, 3, 5, 4, 3, 4, 3, 3, 2, 2, 2, 4, 3, 3, 2, 2, 2, 5, 4, 4, 3, 2, 1, 5, 5, 5, 4, 3, 3, 3, 2, 2, 3, 3, 2, 3, 3, 3, 2, 1, 1, 4, 3, 3, 3, 1, 1, 1, 1, 1, 5, 5, 5, 5, 3, 3, 4, 4, 3, 4, 3, 2, 3, 3, 3, 4, 4, 4, 3, 2, 1, 2, 1, 1, 4, 3, 3, 4, 2, 2, 3, 2, 2, 3, 2, 2, 3, 2, 2, 4, 3, 2, 4, 4, 3, 5, 3, 3, 3, 2, 2, 4, 2, 2, 2, 1, 1, 3, 3, 3, 4, 4, 4, 4, 4, 3, 3, 2, 2, 1, 1, 1
 |3, 2, 2, 5, 4, 2, 5, 3, 2, 4, 4, 4, 1, 1, 1, 4, 4, 3, 5, 4, 3, 1, 1, 1, 3, 2, 1, 3, 3, 3, 3, 1, 1, 4, 4, 2, 3, 1, 1, 2, 2, 2, 2, 2, 2, 3, 3, 3, 4, 3, 1, 4, 2, 2, 2, 1, 1, 5, 5, 5, 5, 4, 4, 4, 3, 2, 3, 2, 2, 4, 4, 4, 3, 1, 1, 4, 3, 3, 1, 1, 1, 3, 3, 2, 3, 2, 1, 4, 4, 3, 5, 5, 5, 4, 4, 4, 4, 4, 4, 5, 2, 2, 3, 3, 3, 2, 2, 1, 3, 2, 1, 2, 1, 1, 4, 3, 3, 4, 3, 2, 2, 2, 1, 1, 1, 1, 4, 3, 2, 4, 2, 1, 4, 3, 3, 5, 3, 1, 2, 2, 2, 3, 3, 3, 3, 2, 1, 3, 3, 2
 |3, 3, 3, 1, 1, 1, 2, 2, 2, 4, 4, 4, 1, 1, 1, 3, 2, 1, 4, 2, 2, 5, 3, 1, 2, 1, 1, 4, 4, 4, 3, 2, 2, 4, 3, 1, 4, 2, 2, 3, 3, 2, 3, 3, 2, 5, 3, 3, 5, 3, 3, 4, 3, 2, 2, 1, 1, 5, 2, 2, 4, 4, 4, 3, 3, 3, 4, 3, 3, 3, 3, 1, 4, 3, 2, 1, 1, 1, 1, 1, 1, 3, 3, 2, 4, 3, 3, 3, 2, 2, 1, 1, 1, 3, 3, 2, 4, 3, 2, 3, 2, 1, 4, 3, 2, 3, 2, 2, 1, 1, 1, 4, 3, 2, 5, 4, 3, 2, 1, 1, 3, 2, 2, 2, 2, 2, 5, 5, 5, 2, 1, 1, 3, 3, 2, 5, 3, 1, 4, 2, 1, 3, 2, 2, 2, 2, 2, 1, 1, 1
 |5, 5, 5, 5, 2, 1, 2, 1, 1, 4, 2, 2, 4, 4, 4, 3, 3, 1, 3, 2, 2, 2, 1, 1, 5, 4, 4, 3, 3, 3, 5, 3, 3, 1, 1, 1, 3, 3, 2, 5, 4, 4, 4, 4, 2, 4, 4, 4, 3, 2, 2, 3, 2, 2, 2, 2, 2, 2, 2, 2, 4, 2, 2, 4, 3, 2, 4, 3, 2, 2, 2, 2, 4, 4, 4, 1, 1, 1, 3, 2, 1, 3, 3, 3, 2, 1, 1, 5, 3, 1, 3, 3, 1, 1, 1, 1, 4, 4, 3, 5, 4, 4, 5, 4, 3, 4, 4, 4, 2, 2, 2, 5, 5, 5, 4, 3, 2, 5, 3, 2, 5, 4, 3, 3, 3, 1, 2, 2, 2, 4, 2, 2, 4, 4, 4, 2, 1, 1, 5, 3, 3, 4, 4, 3, 1, 1, 1, 4, 2, 2
 |16, 14, 13, 20, 20, 20, 18, 18, 17, 26, 25, 25, 24, 16, 9, 22, 10, 1, 6, 3, 2, 29, 27, 27, 25, 25, 25, 22, 17, 17, 9, 7, 5, 24, 15, 8, 11, 11, 11, 18, 16, 1, 18, 16, 11, 28, 28, 28, 5, 5, 5, 19, 18, 16, 19, 14, 11, 16, 16, 16, 23, 16, 13, 4, 3, 1, 12, 11, 10, 22, 15, 15, 22, 10, 7, 16, 14, 13, 9, 8, 4, 25, 18, 13, 21, 18, 12, 12, 9, 6, 12, 11, 10, 19, 18, 11, 2, 1, 1, 5, 5, 5, 19, 17, 5, 18, 9, 6, 23, 12, 6, 12, 7, 3, 25, 18, 5, 7, 6, 6, 20, 15, 11, 1, 1, 1, 20, 10, 10, 15, 11, 10, 20, 15, 9, 11, 8, 7, 6, 5, 4, 22, 18, 13, 21, 20, 13, 10, 9, 6
 |20, 19, 19, 20, 16, 5, 23, 21, 21, 24, 22, 22, 13, 12, 11, 9, 8, 8, 29, 28, 28, 18, 13, 4, 14, 8, 3, 3, 3, 1, 22, 18, 11, 25, 12, 4, 21, 16, 12, 13, 10, 9, 22, 10, 9, 15, 14, 14, 9, 9, 8, 23, 19, 16, 21, 18, 17, 25, 17, 13, 25, 14, 13, 17, 15, 14, 12, 9, 9, 9, 8, 7, 15, 12, 9, 24, 21, 21, 11, 9, 3, 21, 19, 19, 15, 14, 13, 25, 19, 18, 29, 28, 28, 17, 10, 7, 17, 14, 6, 17, 16, 12, 27, 23, 20, 29, 22, 19, 11, 9, 8, 28, 28, 28, 18, 11, 9, 21, 16, 7, 25, 25, 24, 7, 7, 7, 15, 12, 7, 10, 8, 8, 28, 18, 13, 21, 19, 16, 12, 10, 10, 5, 4, 4, 10, 7, 5, 23, 23, 20
 |18, 16, 3, 15, 14, 14, 21, 17, 9, 19, 19, 14, 24, 21, 15, 14, 14, 12, 14, 6, 1, 29, 27, 26, 29, 27, 26, 29, 29, 29, 16, 14, 8, 16, 15, 13, 18, 11, 8, 21, 20, 16, 20, 15, 12, 16, 11, 9, 15, 13, 11, 21, 16, 11, 17, 15, 14, 14, 14, 13, 27, 19, 17, 24, 22, 22, 21, 17, 7, 16, 16, 13, 23, 17, 12, 24, 22, 20, 16, 15, 10, 11, 8, 7, 13, 11, 10, 26, 17, 14, 19, 17, 14, 24, 13, 3, 18, 17, 17, 11, 8, 6, 26, 24, 23, 22, 13, 2, 23, 21, 18, 13, 12, 12, 15, 7, 6, 3, 3, 3, 6, 5, 5, 28, 16, 11, 12, 11, 11, 10, 9, 9, 28, 18, 16, 4, 3, 2, 20, 20, 11, 27, 23, 22, 18, 16, 12, 20, 14, 12
 |25, 19, 14, 28, 25, 24, 4, 3, 3, 25, 16, 10, 27, 26, 26, 24, 16, 12, 13, 8, 8, 16, 8, 1, 12, 8, 7, 13, 9, 8, 17, 16, 14, 23, 19, 16, 29, 27, 24, 18, 14, 13, 16, 14, 13, 15, 14, 14, 2, 1, 1, 17, 17, 15, 18, 18, 18, 19, 17, 9, 16, 14, 11, 24, 23, 23, 16, 10, 3, 10, 6, 4, 21, 21, 21, 18, 16, 14, 15, 6, 3, 19, 13, 9, 20, 12, 6, 21, 11, 4, 22, 19, 14, 22, 19, 18, 15, 15, 4, 19, 18, 16, 22, 22, 22, 20, 15, 9, 23, 17, 13, 20, 16, 10, 26, 25, 21, 15, 12, 4, 8, 7, 7, 14, 11, 8, 17, 15, 13, 21, 20, 6, 13, 12, 11, 25, 23, 21, 21, 19, 12, 13, 11, 7, 13, 10, 5, 27, 27, 27|];